min: c;

c = 2.8830762851058 * u1_t7_h4 + 3.97768552631738 * u1_t7_h5 + 3.71885657003821 * u1_t5_h6 + 3.71885657003821 * u1_t7_h6 + 4.16714535837767 * u1_t5_h7 + 4.16714535837767 * u1_t7_h7 + 4.16714535837767 * u1_t9_h7 + 5.09686509690236 * u1_t5_h8 + 5.09686509690236 * u1_t7_h8 + 5.09686509690236 * u1_t9_h8 + 5.09686509690236 * u1_t10_h8 + 4.65936485143157 * u1_t5_h9 + 4.65936485143157 * u1_t7_h9 + 4.65936485143157 * u1_t9_h9 + 4.65936485143157 * u1_t10_h9 + 5.55303568355508 * u1_t5_h10 + 5.55303568355508 * u1_t7_h10 + 5.55303568355508 * u1_t9_h10 + 5.55303568355508 * u1_t10_h10 + 4.22371664402156 * u1_t5_h11 + 4.22371664402156 * u1_t9_h11 + 4.22371664402156 * u1_t10_h11 + 6.67899675989898 * u1_t4_h12 + 6.67899675989898 * u1_t5_h12 + 6.67899675989898 * u1_t8_h12 + 6.67899675989898 * u1_t9_h12 + 6.67899675989898 * u1_t10_h12 + 4.86309406837676 * u1_t4_h13 + 4.86309406837676 * u1_t8_h13 + 4.86309406837676 * u1_t9_h13 + 4.86309406837676 * u1_t10_h13 + 5.55347252487899 * u1_t4_h14 + 5.55347252487899 * u1_t8_h14 + 5.55347252487899 * u1_t9_h14 + 5.55347252487899 * u1_t10_h14 + 5.86908378361079 * u1_t4_h15 + 5.86908378361079 * u1_t8_h15 + 6.36856869336549 * u1_t4_h16 + 6.36856869336549 * u1_t8_h16 + 6.05218096648113 * u1_t4_h17 + 6.05218096648113 * u1_t8_h17 + 6.4531438173419 * u1_t2_h18 + 6.4531438173419 * u1_t4_h18 + 6.4531438173419 * u1_t6_h18 + 6.4531438173419 * u1_t8_h18 + 5.16982358744511 * u1_t2_h19 + 5.16982358744511 * u1_t3_h19 + 5.16982358744511 * u1_t4_h19 + 5.16982358744511 * u1_t6_h19 + 5.45246674180863 * u1_t1_h20 + 5.45246674180863 * u1_t2_h20 + 5.45246674180863 * u1_t3_h20 + 5.45246674180863 * u1_t4_h20 + 5.45246674180863 * u1_t6_h20 + 4.83403101941733 * u1_t1_h21 + 4.83403101941733 * u1_t2_h21 + 4.83403101941733 * u1_t3_h21 + 5.46830339549282 * u1_t1_h22 + 5.46830339549282 * u1_t2_h22 + 5.00490505123966 * u1_t1_h23 + 5.00490505123966 * u1_t2_h23;
0 <= u1_t1_h20 <= 1;
0 <= u1_t1_h21 <= 1;
0 <= u1_t1_h22 <= 1;
0 <= u1_t1_h23 <= 1;
u1_t1_h20 + u1_t1_h21 + u1_t1_h22 + u1_t1_h23 = 1;
0 <= u1_t2_h18 <= 1;
0 <= u1_t2_h19 <= 1;
0 <= u1_t2_h20 <= 1;
0 <= u1_t2_h21 <= 1;
0 <= u1_t2_h22 <= 1;
0 <= u1_t2_h23 <= 1;
u1_t2_h18 + u1_t2_h19 + u1_t2_h20 + u1_t2_h21 + u1_t2_h22 + u1_t2_h23 = 2;
0 <= u1_t3_h19 <= 1;
0 <= u1_t3_h20 <= 1;
0 <= u1_t3_h21 <= 1;
u1_t3_h19 + u1_t3_h20 + u1_t3_h21 = 1;
0 <= u1_t4_h12 <= 1;
0 <= u1_t4_h13 <= 1;
0 <= u1_t4_h14 <= 1;
0 <= u1_t4_h15 <= 1;
0 <= u1_t4_h16 <= 1;
0 <= u1_t4_h17 <= 1;
0 <= u1_t4_h18 <= 1;
0 <= u1_t4_h19 <= 1;
0 <= u1_t4_h20 <= 1;
u1_t4_h12 + u1_t4_h13 + u1_t4_h14 + u1_t4_h15 + u1_t4_h16 + u1_t4_h17 + u1_t4_h18 + u1_t4_h19 + u1_t4_h20 = 3;
0 <= u1_t5_h6 <= 1;
0 <= u1_t5_h7 <= 1;
0 <= u1_t5_h8 <= 1;
0 <= u1_t5_h9 <= 1;
0 <= u1_t5_h10 <= 1;
0 <= u1_t5_h11 <= 1;
0 <= u1_t5_h12 <= 1;
u1_t5_h6 + u1_t5_h7 + u1_t5_h8 + u1_t5_h9 + u1_t5_h10 + u1_t5_h11 + u1_t5_h12 = 3;
0 <= u1_t6_h18 <= 1;
0 <= u1_t6_h19 <= 1;
0 <= u1_t6_h20 <= 1;
u1_t6_h18 + u1_t6_h19 + u1_t6_h20 = 2;
0 <= u1_t7_h4 <= 1;
0 <= u1_t7_h5 <= 1;
0 <= u1_t7_h6 <= 1;
0 <= u1_t7_h7 <= 1;
0 <= u1_t7_h8 <= 1;
0 <= u1_t7_h9 <= 1;
0 <= u1_t7_h10 <= 1;
u1_t7_h4 + u1_t7_h5 + u1_t7_h6 + u1_t7_h7 + u1_t7_h8 + u1_t7_h9 + u1_t7_h10 = 2;
0 <= u1_t8_h12 <= 1;
0 <= u1_t8_h13 <= 1;
0 <= u1_t8_h14 <= 1;
0 <= u1_t8_h15 <= 1;
0 <= u1_t8_h16 <= 1;
0 <= u1_t8_h17 <= 1;
0 <= u1_t8_h18 <= 1;
u1_t8_h12 + u1_t8_h13 + u1_t8_h14 + u1_t8_h15 + u1_t8_h16 + u1_t8_h17 + u1_t8_h18 = 2;
0 <= u1_t9_h7 <= 1;
0 <= u1_t9_h8 <= 1;
0 <= u1_t9_h9 <= 1;
0 <= u1_t9_h10 <= 1;
0 <= u1_t9_h11 <= 1;
0 <= u1_t9_h12 <= 1;
0 <= u1_t9_h13 <= 1;
0 <= u1_t9_h14 <= 1;
u1_t9_h7 + u1_t9_h8 + u1_t9_h9 + u1_t9_h10 + u1_t9_h11 + u1_t9_h12 + u1_t9_h13 + u1_t9_h14 = 3;
0 <= u1_t10_h8 <= 1;
0 <= u1_t10_h9 <= 1;
0 <= u1_t10_h10 <= 1;
0 <= u1_t10_h11 <= 1;
0 <= u1_t10_h12 <= 1;
0 <= u1_t10_h13 <= 1;
0 <= u1_t10_h14 <= 1;
u1_t10_h8 + u1_t10_h9 + u1_t10_h10 + u1_t10_h11 + u1_t10_h12 + u1_t10_h13 + u1_t10_h14 = 3;
